p cnf 100 1
100 0
w 1 0.618055
w 2 1 0.0294875
w 2 -1 0.0787732
w 3 2 0.991824
w 3 -2 0.222992
w 4 3 0.211006
w 4 -3 0.40851
w 5 4 0
w 5 -4 1
w 6 5 0
w 6 -5 1
w 7 6 0
w 7 -6 1
w 8 7 0
w 8 -7 1
w 9 8 0
w 9 -8 1
w 10 9 0
w 10 -9 1
w 11 1 1
w 11 -1 0
w 12 11 2 1
w 12 11 -2 0
w 12 -11 2 0
w 12 -11 -2 1
w 13 12 3 0
w 13 12 -3 1
w 13 -12 3 0
w 13 -12 -3 1
w 14 13 4 1
w 14 13 -4 0
w 14 -13 4 1
w 14 -13 -4 1
w 15 14 5 0.414952
w 15 14 -5 0.479161
w 15 -14 5 0.339681
w 15 -14 -5 0.330594
w 16 15 6 0.130849
w 16 15 -6 0.3493
w 16 -15 6 0.243129
w 16 -15 -6 0.348648
w 17 16 7 0
w 17 16 -7 0
w 17 -16 7 1
w 17 -16 -7 1
w 18 17 8 0.362327
w 18 17 -8 0.857087
w 18 -17 8 0.824898
w 18 -17 -8 0.0253788
w 19 18 9 0
w 19 18 -9 1
w 19 -18 9 1
w 19 -18 -9 1
w 20 19 10 0.7209
w 20 19 -10 0.249236
w 20 -19 10 0.0543924
w 20 -19 -10 0.234952
w 21 11 1
w 21 -11 0
w 22 21 12 0.580298
w 22 21 -12 0.799939
w 22 -21 12 0.46894
w 22 -21 -12 0.711146
w 23 22 13 0
w 23 22 -13 0
w 23 -22 13 0
w 23 -22 -13 1
w 24 23 14 0.845975
w 24 23 -14 0.0632676
w 24 -23 14 0.832938
w 24 -23 -14 0.208302
w 25 24 15 0.657836
w 25 24 -15 0.233681
w 25 -24 15 0.141724
w 25 -24 -15 0.764469
w 26 25 16 0.229738
w 26 25 -16 0.182323
w 26 -25 16 0.206531
w 26 -25 -16 0.965008
w 27 26 17 0.455766
w 27 26 -17 0.0194006
w 27 -26 17 0.138175
w 27 -26 -17 0.696383
w 28 27 18 1
w 28 27 -18 1
w 28 -27 18 1
w 28 -27 -18 0
w 29 28 19 0.437922
w 29 28 -19 0.0332969
w 29 -28 19 0.0476211
w 29 -28 -19 0.700167
w 30 29 20 1
w 30 29 -20 1
w 30 -29 20 0
w 30 -29 -20 1
w 31 21 0.0615087
w 31 -21 0.458224
w 32 31 22 0.203232
w 32 31 -22 0.222693
w 32 -31 22 0.528291
w 32 -31 -22 0.43297
w 33 32 23 1
w 33 32 -23 1
w 33 -32 23 0
w 33 -32 -23 0
w 34 33 24 1
w 34 33 -24 1
w 34 -33 24 0
w 34 -33 -24 0
w 35 34 25 1
w 35 34 -25 0
w 35 -34 25 1
w 35 -34 -25 1
w 36 35 26 0.1991
w 36 35 -26 0.332898
w 36 -35 26 0.731113
w 36 -35 -26 0.16655
w 37 36 27 0.872268
w 37 36 -27 0.966937
w 37 -36 27 0.633484
w 37 -36 -27 0.933777
w 38 37 28 1
w 38 37 -28 1
w 38 -37 28 0
w 38 -37 -28 1
w 39 38 29 0.052871
w 39 38 -29 0.884723
w 39 -38 29 0.967957
w 39 -38 -29 0.36111
w 40 39 30 1
w 40 39 -30 1
w 40 -39 30 0
w 40 -39 -30 0
w 41 31 1
w 41 -31 0
w 42 41 32 0
w 42 41 -32 0
w 42 -41 32 1
w 42 -41 -32 1
w 43 42 33 0
w 43 42 -33 1
w 43 -42 33 0
w 43 -42 -33 1
w 44 43 34 0.610001
w 44 43 -34 0.96442
w 44 -43 34 0.916539
w 44 -43 -34 0.0351624
w 45 44 35 0.0535474
w 45 44 -35 0.683017
w 45 -44 35 0.735931
w 45 -44 -35 0.623526
w 46 45 36 0.620654
w 46 45 -36 0.591484
w 46 -45 36 0.096998
w 46 -45 -36 0.695965
w 47 46 37 0.904521
w 47 46 -37 0.658248
w 47 -46 37 0.26828
w 47 -46 -37 0.0107463
w 48 47 38 0.754548
w 48 47 -38 0.736901
w 48 -47 38 0.061596
w 48 -47 -38 0.873547
w 49 48 39 1
w 49 48 -39 0
w 49 -48 39 0
w 49 -48 -39 0
w 50 49 40 0.209538
w 50 49 -40 0.791173
w 50 -49 40 0.620799
w 50 -49 -40 0.126076
w 51 41 0.206829
w 51 -41 0.179624
w 52 51 42 0.942759
w 52 51 -42 0.80315
w 52 -51 42 0.245241
w 52 -51 -42 0.563413
w 53 52 43 1
w 53 52 -43 1
w 53 -52 43 1
w 53 -52 -43 0
w 54 53 44 0.639734
w 54 53 -44 0.257507
w 54 -53 44 0.701808
w 54 -53 -44 0.394282
w 55 54 45 0.763404
w 55 54 -45 0.267829
w 55 -54 45 0.110689
w 55 -54 -45 0.301513
w 56 55 46 0.337465
w 56 55 -46 0.482686
w 56 -55 46 0.249651
w 56 -55 -46 0.547003
w 57 56 47 1
w 57 56 -47 1
w 57 -56 47 0
w 57 -56 -47 1
w 58 57 48 0.609549
w 58 57 -48 0.020037
w 58 -57 48 0.655853
w 58 -57 -48 0.85479
w 59 58 49 0.0504861
w 59 58 -49 0.19703
w 59 -58 49 0.842827
w 59 -58 -49 0.42194
w 60 59 50 1
w 60 59 -50 0
w 60 -59 50 0
w 60 -59 -50 0
w 61 51 0.225664
w 61 -51 0.723784
w 62 61 52 0.527177
w 62 61 -52 0.317056
w 62 -61 52 0.14386
w 62 -61 -52 0.00986375
w 63 62 53 0.690863
w 63 62 -53 0.283723
w 63 -62 53 0.437156
w 63 -62 -53 0.363942
w 64 63 54 1
w 64 63 -54 0
w 64 -63 54 1
w 64 -63 -54 0
w 65 64 55 0.848257
w 65 64 -55 0.11792
w 65 -64 55 0.922983
w 65 -64 -55 0.045287
w 66 65 56 0.344923
w 66 65 -56 0.489077
w 66 -65 56 0.7212
w 66 -65 -56 0.406596
w 67 66 57 1
w 67 66 -57 1
w 67 -66 57 0
w 67 -66 -57 1
w 68 67 58 0.692476
w 68 67 -58 0.936302
w 68 -67 58 0.903391
w 68 -67 -58 0.836336
w 69 68 59 0.470097
w 69 68 -59 0.527199
w 69 -68 59 0.229889
w 69 -68 -59 0.907253
w 70 69 60 0.613808
w 70 69 -60 0.421687
w 70 -69 60 0.107786
w 70 -69 -60 0.607275
w 71 61 0.980283
w 71 -61 0.455533
w 72 71 62 0
w 72 71 -62 0
w 72 -71 62 0
w 72 -71 -62 1
w 73 72 63 0.654785
w 73 72 -63 0.180272
w 73 -72 63 0.939486
w 73 -72 -63 0.517337
w 74 73 64 0
w 74 73 -64 1
w 74 -73 64 0
w 74 -73 -64 0
w 75 74 65 1
w 75 74 -65 0
w 75 -74 65 0
w 75 -74 -65 1
w 76 75 66 1
w 76 75 -66 1
w 76 -75 66 0
w 76 -75 -66 1
w 77 76 67 0
w 77 76 -67 0
w 77 -76 67 0
w 77 -76 -67 1
w 78 77 68 0.00483841
w 78 77 -68 0.638403
w 78 -77 68 0.871163
w 78 -77 -68 0.253028
w 79 78 69 0.627189
w 79 78 -69 0.907813
w 79 -78 69 0.808572
w 79 -78 -69 0.566675
w 80 79 70 0
w 80 79 -70 0
w 80 -79 70 1
w 80 -79 -70 0
w 81 71 0.228918
w 81 -71 0.431275
w 82 81 72 0
w 82 81 -72 1
w 82 -81 72 0
w 82 -81 -72 1
w 83 82 73 0.203559
w 83 82 -73 0.486074
w 83 -82 73 0.649067
w 83 -82 -73 0.965818
w 84 83 74 0.78665
w 84 83 -74 0.802155
w 84 -83 74 0.592484
w 84 -83 -74 0.425053
w 85 84 75 0.845512
w 85 84 -75 0.0533535
w 85 -84 75 0.300506
w 85 -84 -75 0.753325
w 86 85 76 0.867181
w 86 85 -76 0.178475
w 86 -85 76 0.736851
w 86 -85 -76 0.782466
w 87 86 77 0.370605
w 87 86 -77 0.982664
w 87 -86 77 0.243181
w 87 -86 -77 0.599522
w 88 87 78 0
w 88 87 -78 1
w 88 -87 78 0
w 88 -87 -78 0
w 89 88 79 0
w 89 88 -79 1
w 89 -88 79 1
w 89 -88 -79 0
w 90 89 80 0.389307
w 90 89 -80 0.708917
w 90 -89 80 0.625217
w 90 -89 -80 0.981791
w 91 81 1
w 91 -81 0
w 92 91 82 0.187323
w 92 91 -82 0.599041
w 92 -91 82 0.580627
w 92 -91 -82 0.0492492
w 93 92 83 1
w 93 92 -83 0
w 93 -92 83 0
w 93 -92 -83 1
w 94 93 84 1
w 94 93 -84 0
w 94 -93 84 0
w 94 -93 -84 0
w 95 94 85 0.707031
w 95 94 -85 0.951473
w 95 -94 85 0.61949
w 95 -94 -85 0.0226181
w 96 95 86 0
w 96 95 -86 0
w 96 -95 86 0
w 96 -95 -86 1
w 97 96 87 0
w 97 96 -87 1
w 97 -96 87 1
w 97 -96 -87 0
w 98 97 88 1
w 98 97 -88 1
w 98 -97 88 0
w 98 -97 -88 1
w 99 98 89 0
w 99 98 -89 0
w 99 -98 89 0
w 99 -98 -89 1
w 100 99 90 0.538387
w 100 99 -90 0.925429
w 100 -99 90 0.414141
w 100 -99 -90 0.504192